Route #1: 1 1 16 6 34 29 33 26 12 3 1 
Route #2: 1 30 10 19 18 28 5 31 25 1 
Route #3: 1 23 35 8 36 13 15 2 21 1 
Route #4: 1 4 37 11 27 22 7 32 1 
Route #5: 1 9 17 24 14 20 1 

Cost 1093.06
Time 0.2173


 * Another infos *

 Iterations: 38 Time: 0.2173 sec - 0.0036 min - 0.0001 horas
0.0000 h 0.0036 min
Problem dimension: 38
